# Objective value = 48
x6 0
x7 0
x8 0
x9 1
x10 0
x11 0
x12 0
x13 1
x14 0
x15 0
x16 1
x17 0
x18 0
x19 0
x20 0
x21 1
x22 0
x23 0
x24 0
x25 0
x26 0
x27 0
x28 0
x29 0
x30 1
x31 0
x32 0
x33 0
x34 0
x35 0
x36 0
x37 0
x38 0
x39 0
x40 0
